(declare-fun e () String)
(declare-fun g () String)
(declare-fun b () String)
(declare-fun d () String)
(declare-fun f () String)
(declare-fun h () String)
(assert (= (str.++ e g "e") (str.++ "faef" b h)))
(assert (= (str.++ b "a") "a"))
(assert (= (str.++ g "eh" d "c") (str.++ h "b" e f "c")))

(check-sat)
